1000
1000
800
799
799
799
798
798
797
797
797
796
796
796
795
795
793
793
792
791
791
791
789
789
789
788
788
786
786
785
785
785
785
784
783
783
783
783
783
782
781
781
781
781
781
780
779
778
777
776
775
775
774
774
772
772
772
771
771
771
770
769
768
768
768
767
767
766
765
764
764
763
763
762
761
761
761
761
761
761
760
757
756
754
754
753
753
751
751
751
750
749
749
749
749
749
748
748
748
747
747
745
745
744
743
743
742
741
740
740
739
739
739
738
738
737
737
734
734
733
732
732
732
731
731
731
731
729
728
728
727
726
725
725
724
723
723
723
723
721
721
720
720
719
719
718
718
718
718
717
717
715
715
715
715
714
714
712
712
711
711
711
710
709
709
709
707
707
706
706
706
706
706
706
705
705
705
704
704
702
702
700
700
700
699
699
699
698
697
697
696
696
695
695
694
694
693
693
692
690
690
690
688
686
685
685
684
684
684
684
684
683
683
681
681
680
679
678
677
677
676
675
675
674
673
673
672
671
671
671
671
670
670
669
669
669
668
667
666
666
665
664
664
664
662
662
659
658
658
657
657
655
655
653
653
652
651
651
650
650
647
647
647
647
646
644
644
644
643
643
643
643
641
641
641
640
640
640
639
638
638
637
637
637
636
636
636
635
635
635
634
633
632
632
632
631
631
631
630
630
630
629
628
628
627
626
626
624
624
622
622
620
619
619
619
618
618
616
615
615
615
614
613
613
612
612
611
611
611
611
611
610
609
607
606
604
603
602
602
601
601
599
598
598
597
597
596
596
595
595
595
594
594
594
594
593
592
591
591
591
591
590
590
587
585
584
584
583
583
582
582
582
581
581
581
580
579
579
579
576
576
576
576
574
574
574
573
572
571
570
570
570
570
568
568
567
567
566
566
566
565
565
565
564
564
564
563
563
563
562
562
559
558
558
557
557
556
556
555
554
553
553
552
551
551
551
550
550
550
549
548
548
548
547
547
547
543
542
542
542
541
541
540
538
537
535
533
533
533
533
533
532
532
531
531
531
531
531
530
530
529
528
528
528
527
527
527
526
525
524
524
524
523
522
522
521
521
520
520
520
518
517
517
517
516
516
515
514
513
512
512
512
511
510
509
509
509
509
509
508
508
506
506
505
504
503
503
503
502
502
502
502
501
500
500
499
499
499
496
496
496
495
495
495
494
494
493
493
493
492
491
489
489
489
488
488
488
488
487
487
486
486
486
485
485
482
482
482
481
481
481
480
480
479
479
478
478
476
476
476
475
473
473
473
472
471
470
470
470
470
469
469
469
468
468
468
467
466
466
465
465
464
463
463
462
460
459
456
455
454
454
454
453
453
452
450
450
450
449
449
449
449
448
446
446
444
443
443
443
442
442
441
440
440
440
440
440
439
439
439
439
437
437
436
436
435
435
435
435
434
433
433
433
433
432
432
432
430
430
429
429
428
428
428
427
427
427
426
425
425
425
424
424
424
422
421
420
420
420
419
419
417
417
417
417
417
416
415
415
414
414
413
413
413
412
412
412
412
411
410
410
409
409
409
408
408
407
407
406
406
406
405
404
402
400
399
398
397
395
392
391
391
391
390
390
388
388
387
386
386
386
386
384
384
383
383
383
382
382
381
380
380
378
378
378
377
376
376
376
375
375
375
374
374
373
370
370
369
368
368
368
368
367
365
365
365
365
365
364
364
362
362
361
361
361
360
360
359
359
358
358
357
356
356
356
355
355
354
354
354
353
353
353
353
353
353
351
351
350
349
349
348
348
346
345
343
342
341
341
340
339
337
337
336
336
335
334
333
333
332
332
328
328
328
328
327
327
327
327
326
325
324
323
321
321
321
320
320
319
319
319
318
317
316
316
315
314
314
313
310
310
310
308
307
307
306
306
306
306
305
305
305
304
304
304
303
302
301
301
301
296
296
296
295
293
293
292
289
289
288
286
286
285
284
284
284
281
281
281
281
280
280
280
279
279
279
278
277
277
277
275
275
275
274
273
269
268
268
267
267
266
266
266
265
265
265
264
264
264
263
263
262
262
262
262
262
261
261
261
260
258
258
257
257
256
256
254
254
252
252
251
251
250
249
248
247
247
245
244
243
242
241
241
240
240
239
238
238
238
238
237
236
235
234
234
233
232
232
231
231
229
229
228
228
227
227
227
226
225
223
223
223
222
222
221
220
216
216
216
215
214
214
213
213
212
211
211
211
210
209
208
207
207
207
207
205
205
205
204
204
204
204
204
203
203
203
201
201
201
200
200
200
